75
[15,16,17,18,19,20,21,22,23,24,25,26,27,28,29,30,31,32,33,34,35,36,37,38,39,40,41,42,43,44,45,46,47,48,49,50,51,52]
[11,7,17,13,11,10,13,10,11,10,8,15,8,9,9,10,9,10,16,12,8,7,8,13,12,9,13,9,8,13,14,12,10,11,9,6,12,7]
